NAME: I24665-n82-k8
COMMENT : (Fake et al, No of trucks: 8, Optimal value: )
TYPE : CVRP
DIMENSION : 82
EDGE_WEIGHT_TYPE : EUC_2D
CAPACITY : 17
NODE_COORD_SECTION
1 161 402
2 345 33
3 78 864
4 392 151
5 620 763
6 748 55
7 270 500
8 803 689
9 586 721
10 670 295
11 786 955
12 998 690
13 821 548
14 220 943
15 381 91
16 82 618
17 544 573
18 658 548
19 830 208
20 841 421
21 303 603
22 973 730
23 948 366
24 26 5
25 909 914
26 452 672
27 997 767
28 395 998
29 887 360
30 83 336
31 768 299
32 942 382
33 485 594
34 151 777
35 980 589
36 570 591
37 20 437
38 99 88
39 481 154
40 359 659
41 267 646
42 720 316
43 895 361
44 647 463
45 906 334
46 845 798
47 301 265
48 916 658
49 249 641
50 111 201
51 81 659
52 390 757
53 280 321
54 264 894
55 682 273
56 672 324
57 679 158
58 295 150
59 27 575
60 226 705
61 49 200
62 194 461
63 361 370
64 733 60
65 36 45
66 80 860
67 318 984
68 442 14
69 800 482
70 538 379
71 441 662
72 254 918
73 877 329
74 477 952
75 820 590
76 791 264
77 598 153
78 248 938
79 367 309
80 303 787
81 986 732
82 555 180
DEMAND_SECTION
1 0
2 1
3 1
4 1
5 1
6 2
7 2
8 2
9 1
10 1
11 1
12 1
13 1
14 1
15 1
16 2
17 2
18 1
19 2
20 1
21 1
22 2
23 1
24 1
25 1
26 2
27 1
28 2
29 2
30 1
31 2
32 2
33 1
34 1
35 1
36 1
37 2
38 1
39 1
40 2
41 2
42 1
43 1
44 2
45 1
46 1
47 2
48 1
49 2
50 1
51 2
52 2
53 1
54 2
55 2
56 2
57 2
58 2
59 2
60 2
61 2
62 2
63 1
64 1
65 1
66 1
67 2
68 1
69 2
70 1
71 2
72 1
73 2
74 1
75 2
76 2
77 2
78 1
79 2
80 2
81 2
82 1
DEPOT_SECTION
 1
 -1
 EOF 